
Route #1: 2 40 20 23 22 30 13 
Route #2: 1 7 36 32 16 31 15 
Route #3: 25 24 18 37 9 3 21 
Route #4: 4 38 19 26 27 39 35 
Route #5: 17 29 14 28 33 34 11 
Route #6: 8 10 12 5 6 
cost 1053.43
total time is 4.4